Route #1:
Route #2: 5 19
Route #3: 16
Route #4: 24 9 22 4 23
Route #5: 6 25 14 18 13 26 3 10 20
Route #6: 31
Route #7: 30 2
Route #8: 12
Route #9: 29 27
Route #10: 1 7
Route #11: 21 17 28 8 11
Route #12: 15

Cost: 2109.9067542826187
